c ---- [ banner ] ------------------------------------------------------------
c
c Kissat SAT Solver
c 
c Copyright (c) 2021-2024 Armin Biere University of Freiburg
c Copyright (c) 2019-2021 Armin Biere Johannes Kepler University Linz
c 
c Version 4.0.1 43f02cf3e992cb44653b35e5cb26f93281552ae0
c gcc (Ubuntu 13.2.0-23ubuntu4) 13.2.0 -W -Wall -O3 -DNDEBUG
c Thu Sep 12 12:27:46 CEST 2024 Linux abryzen9 6.8.0-41-generic x86_64
c
c ---- [ parsing ] -----------------------------------------------------------
c
c opened and reading DIMACS file:
c
c   /data/artifact/AMulet2.0_artifact/exp4/cnf_dc2_64/64_64_U2_DT_LF_Multgen_dc2.cnf
c
c parsed 'p cnf 34039 152427' header
c closing input after reading 3087819 bytes (3 MB)
c finished parsing after 0.02 seconds
c
c ---- [ options ] -----------------------------------------------------------
c
c --stable=0                       (different from default '1')
c
c ---- [ solving ] -----------------------------------------------------------
c
c  seconds switched rate     size/glue tier1  binary          remaining
c         MB reductions conflicts size  tier2    irredundant
c          level restarts redundant glue  trail          variables
c
c *  0.03 15 0 0 0  0 0   0   0 0.0 0 0 0 0 0% 2600 149825 34036 100%
c (  0.04 18 0 0 0  0 0   0   0 0.0 0 0 0 0 0% 2600 149825 34036 100%
c .  0.05 19 0 0 0  0 0   0   0 0.0 0 0 0 0 0% 2596 149825 34036 100%
c c  0.13 30 0 0 0  0 0   0   0 0.0 0 0 0 0 0% 16070 122889 27300 80%
c d  0.13 30 0 0 0  0 0   0   0 0.0 0 0 0 0 0% 2596 122889 27300 80%
c =  0.19 30 0 0 0  0 0   0   0 0.0 0 0 0 0 0% 3192 122889 26999 79%
c d  0.20 30 0 0 0  0 0   0   0 0.0 0 0 0 0 0% 2590 122889 26999 79%
c f  0.34 28 0 0 0  0 0   0   0 0.0 0 0 0 0 0% 8922 113340 30182 89%
c e  0.59 29 0 0 0  0 0   0   0 0.0 0 0 0 0 0% 1508 123132 20236 59%
c )  0.59 29 0 0 0  0 0   0   0 0.0 0 0 0 0 0% 1508 123132 20236 59%
c {  0.62 29 0 0 0  0 0   0   0 0.0 0 0 2 6 0% 1508 123132 20236 59%
c -  0.78 28 165 0 1 112 18 1000 805 1.9 8 5 3 8 17% 1524 123132 20236 59%
c -  0.98 28 183 0 2 234 27 2000 1584 2.5 12 5 3 8 19% 1533 123132 20236 59%
c c  1.17 28 228 0 2 311 33 2505 2033 2.9 14 5 3 8 20% 2230 120348 19887 58%
c d  1.18 28 228 0 2 311 33 2505 2022 2.9 14 5 3 8 20% 1532 120348 19887 58%
c u  1.20 28 228 0 2 311 33 2505 1697 2.9 14 5 3 8 20% 1534 120348 19887 58%
c v  1.22 28 228 0 2 311 33 2505 1472 2.9 14 5 3 8 20% 1534 120348 19887 58%
c w  1.24 28 228 0 2 311 33 2505 1472 2.9 14 5 3 8 20% 1534 120348 19887 58%
c x  1.25 28 228 0 2 311 33 2505 1472 2.9 14 5 3 8 20% 1534 120321 19887 58%
c =  1.32 28 228 0 2 311 33 2505 1472 2.9 14 5 3 8 20% 1710 120321 19799 58%
c
c  seconds   switched   rate       size/glue tier1    binary          remaining
c         MB  reductions conflicts       size  tier2     irredundant
c           level restarts    redundant    glue   trail          variables
c
c d  1.33 28 228 0 2 311 33 2505 1470 2.9 14 5 3 8 20% 1534 120321 19799 58%
c t  1.34 28 228 0 2 311 33 2505 1470 2.9 14 5 3 8 20% 1529 120321 19799 58%
c f  1.36 28 228 0 2 311 33 2505 1470 2.9 14 5 3 8 20% 1559 120276 19814 58%
c u  1.44 28 228 0 2 311 33 2505 1422 2.9 14 5 3 8 20% 1560 120276 19814 58%
c v  1.45 28 228 0 2 311 33 2505 1367 2.9 14 5 3 8 20% 1560 120276 19814 58%
c w  1.47 28 228 0 2 311 33 2505 1355 2.9 14 5 3 8 20% 1560 120276 19814 58%
c =  1.51 28 228 0 2 311 33 2505 1355 2.9 14 5 3 8 20% 1646 120276 19771 58%
c d  1.51 28 228 0 2 311 33 2505 1355 2.9 14 5 3 8 20% 1560 120276 19771 58%
c t  1.52 28 228 0 2 311 33 2505 1355 2.9 14 5 3 8 20% 1549 120276 19771 58%
c f  1.54 28 228 0 2 311 33 2505 1355 2.9 14 5 3 8 20% 1621 120167 19807 58%
c -  1.69 28 242 0 3 428 38 3414 2012 3.3 16 5 3 9 23% 1627 120167 19807 58%
c -  2.09 28 245 0 4 781 45 5146 3230 3.8 20 5 3 9 26% 1658 120167 19807 58%
c -  2.49 28 275 0 5 1029 48 7147 4321 4.3 24 5 2 8 26% 1725 120167 19807 58%
c d  2.70 28 272 0 5 1093 48 7712 4765 4.3 24 5 2 8 27% 1689 120167 19778 58%
c u  2.73 28 272 0 5 1093 48 7712 4491 4.3 24 5 2 8 27% 1695 120167 19778 58%
c v  2.76 28 272 0 5 1093 48 7712 3739 4.3 24 5 2 8 27% 1695 120167 19778 58%
c w  2.80 28 272 0 5 1093 48 7712 3722 4.3 24 5 2 8 27% 1695 120167 19778 58%
c x  2.86 28 272 0 5 1093 48 7712 3722 4.3 24 5 2 8 27% 1695 119637 19778 58%
c =  3.04 28 272 0 5 1093 48 7712 3722 4.3 24 5 2 8 27% 2467 119637 19392 57%
c d  3.05 28 272 0 5 1093 48 7712 3701 4.3 24 5 2 8 27% 1677 119637 19392 57%
c
c  seconds   switched    rate       size/glue tier1    binary          remaining
c         MB  reductions  conflicts       size  tier2     irredundant
c           level  restarts    redundant    glue   trail          variables
c
c t  3.07 28 272 0 5 1093 48 7712 3701 4.3 24 5 2 8 27% 1675 119637 19392 57%
c f  3.11 28 272 0 5 1093 48 7712 3701 4.3 24 5 2 8 27% 1765 119502 19437 57%
c u  3.22 28 272 0 5 1093 48 7712 3626 4.3 24 5 2 8 27% 1765 119502 19437 57%
c v  3.25 28 272 0 5 1093 48 7712 3551 4.3 24 5 2 8 27% 1765 119502 19437 57%
c w  3.30 28 272 0 5 1093 48 7712 3544 4.3 24 5 2 8 27% 1765 119502 19437 57%
c x  3.36 28 272 0 5 1093 48 7712 3544 4.3 24 5 2 8 27% 1781 116914 19437 57%
c =  3.54 28 272 0 5 1093 48 7712 3544 4.3 24 5 2 8 27% 2013 116914 19321 57%
c d  3.55 28 272 0 5 1093 48 7712 3535 4.3 24 5 2 8 27% 1778 116914 19321 57%
c t  3.56 28 272 0 5 1093 48 7712 3535 4.3 24 5 2 8 27% 1735 116914 19321 57%
c f  3.59 28 272 0 5 1093 48 7712 3535 4.3 24 5 2 8 27% 1745 116899 19326 57%
c -  3.85 28 287 0 6 1263 47 9383 4536 4.2 23 6 2 8 27% 1774 116899 19326 57%
c o  4.12 28 293 0 6 1367 49 10052 5093 3.9 28 7 2 8 27% 1799 116899 19326 57%
c -  4.57 28 297 0 7 1488 46 11832 6007 3.9 29 7 2 8 28% 1828 116898 19326 57%
c s  4.77 28 291 0 7 1519 45 12520 6649 3.9 28 7 2 8 28% 1835 114160 19326 57%
c e  4.89 28 291 0 7 1519 45 12520 6649 3.9 28 7 2 8 28% 1335 114469 18980 56%
c s  4.89 28 291 0 7 1519 45 12520 6649 3.9 28 7 2 8 28% 1338 114337 18980 56%
c e  4.90 28 291 0 7 1519 45 12520 6649 3.9 28 7 2 8 28% 1327 114346 18977 56%
c ^  4.90 28 291 0 7 1519 45 12520 6649 3.9 28 7 2 8 28% 1327 114346 18977 56%
c -  5.53 28 294 0 8 1671 43 14479 7317 4.0 30 7 2 8 28% 1362 114346 18977 56%
c d  5.81 28 291 0 8 1724 41 15796 8527 3.9 29 7 2 8 28% 1355 114346 18964 56%
c
c  seconds   switched    rate        size/glue tier1    binary          remaining
c         MB  reductions   conflicts       size  tier2     irredundant
c           level  restarts     redundant    glue   trail          variables
c
c u  5.86 28 291 0 8 1724 41 15796 7891 3.9 29 7 2 8 28% 1359 114346 18964 56%
c v  5.92 28 291 0 8 1724 41 15796 6759 3.9 29 7 2 8 28% 1359 114346 18964 56%
c w  5.97 28 291 0 8 1724 41 15796 6746 3.9 29 7 2 8 28% 1359 114346 18964 56%
c x  6.01 28 291 0 8 1724 41 15796 6746 3.9 29 7 2 8 28% 1359 114283 18964 56%
c =  6.23 28 291 0 8 1724 41 15796 6746 3.9 29 7 2 8 28% 3733 114283 17777 52%
c d  6.24 28 291 0 8 1724 41 15796 6710 3.9 29 7 2 8 28% 1338 114283 17776 52%
c t  6.25 28 291 0 8 1724 41 15796 6710 3.9 29 7 2 8 28% 1326 114283 17776 52%
c f  6.32 28 291 0 8 1724 41 15796 6710 3.9 29 7 2 8 28% 1335 114263 17781 52%
c u  6.38 28 291 0 8 1724 41 15796 6560 3.9 29 7 2 8 28% 1335 114263 17781 52%
c v  6.43 28 291 0 8 1724 41 15796 6370 3.9 29 7 2 8 28% 1335 114263 17781 52%
c w  6.52 28 291 0 8 1724 41 15796 6335 3.9 29 7 2 8 28% 1335 114263 17781 52%
c =  6.74 28 291 0 8 1724 41 15796 6335 3.9 29 7 2 8 28% 4271 114263 16313 48%
c d  6.75 28 291 0 8 1724 41 15796 6260 3.9 29 7 2 8 28% 1258 114263 16313 48%
c f  6.83 28 291 0 8 1724 41 15796 6260 3.9 29 7 2 8 28% 1260 114257 16315 48%
c -  7.21 28 297 0 9 1848 40 17307 6826 3.9 29 7 2 8 27% 1272 114257 16315 48%
c o  7.90 28 298 0 9 2022 38 20078 9345 3.8 28 7 2 8 28% 1293 114257 16315 48%
c -  7.99 28 296 0 10 2048 38 20307 8584 3.8 28 7 2 8 28% 1293 114257 16315 48%
c -  8.86 28 288 0 11 2340 36 23469 10283 3.8 29 8 2 8 28% 1323 114257 16315 48%
c s  8.97 28 273 0 11 2388 34 25029 11125 3.7 28 8 2 8 27% 1352 96894 16315 48%
c e  9.07 28 273 0 11 2388 34 25029 11125 3.7 28 8 2 8 27% 1083 97232 16127 47%
c
c  seconds   switched     rate         size/glue tier1    binary         remaining
c         MB   reductions   conflicts        size  tier2     irredundant
c           level   restarts      redundant    glue   trail         variables
c
c 2  9.07 28 273 0 11 2388 34 25029 11125 3.7 28 8 2 8 27% 1082 97232 16127 47%
c s  9.08 28 273 0 11 2388 34 25029 11125 3.7 28 8 2 8 27% 1117 97015 16127 47%
c e  9.08 28 273 0 11 2388 34 25029 11125 3.7 28 8 2 8 27% 1116 97018 16125 47%
c ^  9.08 28 273 0 11 2388 34 25029 11125 3.7 28 8 2 8 27% 1116 97018 16125 47%
c -  9.53 28 271 0 12 2515 33 26785 10925 3.7 29 8 2 8 27% 1136 97018 16125 47%
c c  9.63 28 270 0 12 2519 33 26930 11053 3.7 29 8 2 8 27% 1176 96811 16099 47%
c d  9.64 28 270 0 12 2519 33 26930 11042 3.7 29 8 2 8 27% 1124 96811 16099 47%
c u  9.69 28 270 0 12 2519 33 26930 10057 3.7 29 8 2 8 27% 1131 96811 16099 47%
c v  9.75 28 270 0 12 2519 33 26930 8886 3.7 29 8 2 8 27% 1133 96811 16099 47%
c w  9.76 28 270 0 12 2519 33 26930 8882 3.7 29 8 2 8 27% 1133 96811 16099 47%
c x  9.81 28 270 0 12 2519 33 26930 8882 3.7 29 8 2 8 27% 1134 96751 16099 47%
c = 10.06 28 270 0 12 2519 33 26930 8882 3.7 29 8 2 8 27% 3490 96751 14921 44%
c d 10.07 28 270 0 12 2519 33 26930 8693 3.7 29 8 2 8 27% 1066 96751 14921 44%
c t 10.09 28 270 0 12 2519 33 26930 8693 3.7 29 8 2 8 27% 1045 96751 14921 44%
c f 10.15 28 270 0 12 2519 33 26930 8693 3.7 29 8 2 8 27% 1086 96648 14941 44%
c u 10.20 28 270 0 12 2519 33 26930 8415 3.7 29 8 2 8 27% 1087 96648 14941 44%
c v 10.24 28 270 0 12 2519 33 26930 8198 3.7 29 8 2 8 27% 1087 96648 14941 44%
c w 10.26 28 270 0 12 2519 33 26930 8197 3.7 29 8 2 8 27% 1087 96648 14941 44%
c t 10.51 28 270 0 12 2519 33 26930 8197 3.7 29 8 2 8 27% 1083 96648 14941 44%
c - 11.07 28 269 0 13 2680 32 30249 10085 3.6 28 8 2 7 27% 1121 96648 14941 44%
c
c  seconds   switched     rate         size/glue tier1    binary         remaining
c         MB   reductions   conflicts        size  tier2     irredundant
c           level   restarts      redundant    glue   trail         variables
c
c - 11.73 28 263 0 14 2880 30 33855 12076 3.6 27 8 2 7 27% 1161 96648 14941 44%
c - 12.22 28 264 0 15 3032 29 37596 13711 3.4 26 8 2 7 27% 1197 96648 14941 44%
c o 12.60 28 262 0 15 3149 28 40103 15935 3.4 26 8 2 7 27% 1221 96648 14941 44%
c c 12.93 28 260 0 15 3245 28 41257 16953 3.4 26 8 2 7 27% 1278 96253 14878 44%
c d 12.93 28 260 0 15 3245 28 41257 16701 3.4 26 8 2 7 27% 1147 96253 14875 44%
c u 13.01 28 260 0 15 3245 28 41257 14826 3.4 26 8 2 7 27% 1160 96253 14875 44%
c v 13.09 28 260 0 15 3245 28 41257 13701 3.4 26 8 2 7 27% 1162 96253 14875 44%
c w 13.15 28 260 0 15 3245 28 41257 13699 3.4 26 8 2 7 27% 1162 96253 14875 44%
c d 13.15 28 260 0 15 3245 28 41257 13686 3.4 26 8 2 7 27% 1150 96253 14869 44%
c t 13.17 28 260 0 15 3245 28 41257 13686 3.4 26 8 2 7 27% 1148 96253 14869 44%
c f 13.18 28 260 0 15 3245 28 41257 13686 3.4 26 8 2 7 27% 1160 96223 14875 44%
c c 13.25 28 260 0 15 3245 28 41257 13669 3.4 26 8 2 7 27% 1169 96175 14869 44%
c d 13.26 28 260 0 15 3245 28 41257 13669 3.4 26 8 2 7 27% 1157 96175 14869 44%
c u 13.32 28 260 0 15 3245 28 41257 13359 3.4 26 8 2 7 27% 1163 96175 14869 44%
c v 13.38 28 260 0 15 3245 28 41257 12601 3.4 26 8 2 7 27% 1165 96175 14869 44%
c w 13.42 28 260 0 15 3245 28 41257 12601 3.4 26 8 2 7 27% 1165 96175 14869 44%
c x 13.45 28 260 0 15 3245 28 41257 12601 3.4 26 8 2 7 27% 1165 96173 14869 44%
c d 13.65 28 260 0 15 3245 28 41257 12599 3.4 26 8 2 7 27% 1161 96173 14867 44%
c t 13.67 28 260 0 15 3245 28 41257 12599 3.4 26 8 2 7 27% 1155 96173 14867 44%
c - 13.72 28 260 0 16 3250 28 41468 11527 3.4 26 8 2 7 27% 1157 96173 14867 44%
c
c  seconds   switched     rate         size/glue tier1    binary         remaining
c         MB   reductions   conflicts        size  tier2     irredundant
c           level   restarts      redundant    glue   trail         variables
c
c - 14.17 28 257 0 17 3391 27 45468 13398 3.3 25 8 2 7 26% 1216 96173 14867 44%
c - 14.98 28 258 0 18 3683 27 49591 15382 3.4 25 8 2 6 26% 1263 96173 14867 44%
c s 15.37 28 254 0 18 3811 27 52129 17540 3.4 25 7 2 6 26% 1297 88495 14867 44%
c e 15.46 28 254 0 18 3811 27 52129 17540 3.4 25 7 2 6 26% 1123 88717 14728 43%
c s 15.46 28 254 0 18 3811 27 52129 17540 3.4 25 7 2 6 26% 1125 88466 14728 43%
c e 15.47 28 254 0 18 3811 27 52129 17540 3.4 25 7 2 6 26% 1123 88446 14721 43%
c ^ 15.47 28 254 0 18 3811 27 52129 17540 3.4 25 7 2 6 26% 1123 88446 14721 43%
c - 15.69 28 252 0 19 3873 26 53836 16318 3.3 25 7 2 6 25% 1145 88446 14721 43%
c - 16.39 28 241 0 20 4112 25 58194 18152 3.3 24 7 2 6 25% 1191 88446 14721 43%
c d 16.47 28 239 0 20 4131 25 58883 18595 3.3 24 7 2 6 25% 1163 88446 14697 43%
c u 16.57 28 239 0 20 4131 25 58883 16304 3.3 24 7 2 6 25% 1199 88446 14697 43%
c v 16.65 28 239 0 20 4131 25 58883 14940 3.3 24 7 2 6 25% 1201 88446 14697 43%
c w 16.68 28 239 0 20 4131 25 58883 14894 3.3 24 7 2 6 25% 1201 88446 14697 43%
c d 16.69 28 239 0 20 4131 25 58883 14879 3.3 24 7 2 6 25% 1171 88446 14682 43%
c t 16.70 28 239 0 20 4131 25 58883 14879 3.3 24 7 2 6 25% 1166 88446 14682 43%
c f 16.73 28 239 0 20 4131 25 58883 14879 3.3 24 7 2 6 25% 1175 88404 14687 43%
c c 16.79 28 239 0 20 4131 25 58883 14771 3.3 24 7 2 6 25% 1272 87925 14630 43%
c d 16.80 28 239 0 20 4131 25 58883 14771 3.3 24 7 2 6 25% 1158 87925 14630 43%
c u 16.87 28 239 0 20 4131 25 58883 14353 3.3 24 7 2 6 25% 1173 87925 14630 43%
c v 16.93 28 239 0 20 4131 25 58883 13804 3.3 24 7 2 6 25% 1175 87925 14630 43%
c
c  seconds   switched     rate         size/glue tier1    binary         remaining
c         MB   reductions   conflicts        size  tier2     irredundant
c           level   restarts      redundant    glue   trail         variables
c
c w 16.96 28 239 0 20 4131 25 58883 13796 3.3 24 7 2 6 25% 1175 87925 14630 43%
c d 16.97 28 239 0 20 4131 25 58883 13786 3.3 24 7 2 6 25% 1157 87925 14621 43%
c t 16.98 28 239 0 20 4131 25 58883 13786 3.3 24 7 2 6 25% 1153 87925 14621 43%
c f 17.00 28 239 0 20 4131 25 58883 13786 3.3 24 7 2 6 25% 1157 87911 14623 43%
c - 17.36 28 231 0 21 4249 24 62667 15350 3.2 24 7 2 6 24% 1235 87911 14623 43%
c - 18.22 28 228 0 22 4553 24 67249 17727 3.2 23 7 2 6 25% 1295 87911 14623 43%
c o 18.75 28 229 0 22 4763 24 70184 20245 3.2 23 7 2 6 24% 1337 87911 14623 43%
c - 19.24 28 229 0 23 4947 24 71940 19730 3.2 24 7 2 6 24% 1358 87911 14623 43%
c - 20.12 28 227 0 24 5261 23 76736 21332 3.2 24 7 2 6 24% 1428 87911 14623 43%
c c 20.81 28 222 0 24 5500 23 79949 24092 3.2 24 7 2 6 24% 1588 86726 14437 42%
c d 20.81 28 222 0 24 5500 23 79949 23340 3.2 24 7 2 6 24% 1215 86726 14437 42%
c u 20.93 28 222 0 24 5500 23 79949 20182 3.2 24 7 2 6 24% 1260 86726 14437 42%
c v 21.05 28 222 0 24 5500 23 79949 18100 3.2 24 7 2 6 24% 1269 86726 14437 42%
c w 21.13 28 222 0 24 5500 23 79949 18100 3.2 24 7 2 6 24% 1269 86726 14437 42%
c = 21.46 28 222 0 24 5500 23 79949 18100 3.2 24 7 2 6 24% 1355 86726 14394 42%
c d 21.47 28 222 0 24 5500 23 79949 17969 3.2 24 7 2 6 24% 1200 86726 14372 42%
c t 21.48 28 222 0 24 5500 23 79949 17969 3.2 24 7 2 6 24% 1192 86726 14372 42%
c c 21.56 28 222 0 24 5500 23 79949 17969 3.2 24 7 2 6 24% 1212 86620 14360 42%
c d 21.57 28 222 0 24 5500 23 79949 17930 3.2 24 7 2 6 24% 1188 86620 14360 42%
c u 21.67 28 222 0 24 5500 23 79949 17251 3.2 24 7 2 6 24% 1196 86620 14360 42%
c
c  seconds   switched     rate         size/glue tier1    binary         remaining
c         MB   reductions   conflicts        size  tier2     irredundant
c           level   restarts      redundant    glue   trail         variables
c
c v 21.74 28 222 0 24 5500 23 79949 16758 3.2 24 7 2 6 24% 1197 86620 14360 42%
c w 21.81 28 222 0 24 5500 23 79949 16756 3.2 24 7 2 6 24% 1197 86620 14360 42%
c x 21.86 28 222 0 24 5500 23 79949 16755 3.2 24 7 2 6 24% 1199 86410 14360 42%
c d 21.87 28 222 0 24 5500 23 79949 16753 3.2 24 7 2 6 24% 1195 86410 14358 42%
c t 21.88 28 222 0 24 5500 23 79949 16753 3.2 24 7 2 6 24% 1193 86410 14358 42%
c - 22.00 28 225 0 25 5524 23 81635 14499 3.2 23 7 1 6 24% 1212 86410 14358 42%
c - 22.68 28 223 0 26 5777 22 86637 15868 3.1 23 7 1 6 23% 1286 86410 14358 42%
c - 23.19 28 216 0 27 5959 22 91736 17276 3.1 23 7 1 6 23% 1357 86410 14358 42%
c s 23.68 28 212 0 27 6183 21 95796 20756 3.1 23 7 1 6 23% 1392 86058 14358 42%
c e 23.78 28 212 0 27 6183 21 95796 20756 3.1 23 7 1 6 23% 748 87380 13990 41%
c s 23.78 28 212 0 27 6183 21 95796 20756 3.1 23 7 1 6 23% 755 86736 13990 41%
c e 23.80 28 212 0 27 6183 21 95796 20756 3.1 23 7 1 6 23% 750 86782 13970 41%
c ^ 23.80 28 212 0 27 6183 21 95796 20756 3.1 23 7 1 6 23% 750 86782 13970 41%
c - 23.92 28 212 0 28 6239 21 96932 16674 3.1 22 7 1 6 23% 759 86782 13970 41%
c - 24.52 28 205 0 29 6589 21 102223 18148 3.1 22 7 1 5 22% 834 86779 13970 41%
c d 24.63 28 204 0 29 6647 21 104564 19848 3.0 22 7 1 5 22% 768 86779 13919 41%
c u 24.67 28 204 0 29 6647 21 104564 18159 3.0 22 7 1 5 22% 800 86779 13919 41%
c v 24.73 28 204 0 29 6647 21 104564 15826 3.0 22 7 1 5 22% 816 86779 13919 41%
c w 24.78 28 204 0 29 6647 21 104564 15487 3.0 22 7 1 5 22% 818 86779 13919 41%
c = 25.00 28 204 0 29 6647 21 104564 15487 3.0 22 7 1 5 22% 1310 86779 13673 40%
c
c  seconds   switched     rate          size/glue tier1   binary         remaining
c         MB   reductions   conflicts         size  tier2    irredundant
c           level   restarts       redundant    glue   trail        variables
c
c d 25.01 28 204 0 29 6647 21 104564 14960 3.0 22 7 1 5 22% 701 86779 13670 40%
c t 25.01 28 204 0 29 6647 21 104564 14960 3.0 22 7 1 5 22% 681 86779 13670 40%
c f 25.04 28 204 0 29 6647 21 104564 14960 3.0 22 7 1 5 22% 690 86741 13673 40%
c c 25.08 28 204 0 29 6647 21 104564 14898 3.0 22 7 1 5 22% 720 86604 13657 40%
c d 25.08 28 204 0 29 6647 21 104564 14898 3.0 22 7 1 5 22% 688 86604 13657 40%
c u 25.11 28 204 0 29 6647 21 104564 14477 3.0 22 7 1 5 22% 694 86604 13657 40%
c v 25.14 28 204 0 29 6647 21 104564 13796 3.0 22 7 1 5 22% 695 86604 13657 40%
c w 25.18 28 204 0 29 6647 21 104564 13646 3.0 22 7 1 5 22% 695 86604 13657 40%
c x 25.21 28 204 0 29 6647 21 104564 13645 3.0 22 7 1 5 22% 704 86512 13657 40%
c = 25.28 28 204 0 29 6647 21 104564 13645 3.0 22 7 1 5 22% 866 86512 13576 40%
c d 25.29 28 204 0 29 6647 21 104564 13616 3.0 22 7 1 5 22% 693 86512 13574 40%
c t 25.29 28 204 0 29 6647 21 104564 13616 3.0 22 7 1 5 22% 673 86512 13574 40%
c f 25.30 28 204 0 29 6647 21 104564 13616 3.0 22 7 1 5 22% 679 86488 13576 40%
c - 25.80 28 202 0 30 7009 21 107610 14349 3.1 22 7 1 5 23% 689 86488 13576 40%
c o 26.14 28 200 0 30 7288 21 110186 16700 3.1 23 7 1 5 23% 702 86488 13576 40%
c - 26.42 28 199 0 31 7450 21 113087 16899 3.1 22 7 1 5 23% 719 86487 13576 40%
c - 27.22 28 195 0 32 8086 21 118654 18796 3.1 23 7 1 5 23% 777 86487 13576 40%
c - 27.87 28 194 0 33 8580 21 124311 20306 3.1 23 7 1 5 23% 833 86487 13576 40%
c - 28.74 28 190 0 34 9260 22 130056 21820 3.1 23 8 1 5 24% 871 86487 13576 40%
c c 29.13 28 187 0 34 9541 22 132809 24189 3.1 24 8 1 5 24% 989 85755 13471 40%
c
c  seconds   switched     rate          size/glue tier1   binary         remaining
c         MB   reductions   conflicts         size  tier2    irredundant
c           level   restarts       redundant    glue   trail        variables
c
c d 29.13 28 187 0 34 9541 22 132809 23817 3.1 24 8 1 5 24% 779 85755 13471 40%
c u 29.17 28 187 0 34 9541 22 132809 21882 3.1 24 8 1 5 24% 803 85755 13471 40%
c v 29.24 28 187 0 34 9541 22 132809 18623 3.1 24 8 1 5 24% 810 85755 13471 40%
c w 29.35 28 187 0 34 9541 22 132809 18598 3.1 24 8 1 5 24% 810 85755 13471 40%
c x 29.41 28 187 0 34 9541 22 132809 18588 3.1 24 8 1 5 24% 823 82563 13471 40%
c = 29.79 28 187 0 34 9541 22 132809 18588 3.1 24 8 1 5 24% 1397 82540 13184 39%
c d 29.80 28 187 0 34 9541 22 132809 18261 3.1 24 8 1 5 24% 757 82538 13183 39%
c t 29.80 28 187 0 34 9541 22 132809 18261 3.1 24 8 1 5 24% 735 82538 13183 39%
c u 29.88 28 187 0 34 9541 22 132809 17693 3.1 24 8 1 5 24% 735 82538 13183 39%
c v 29.92 28 187 0 34 9541 22 132809 16943 3.1 24 8 1 5 24% 738 82538 13183 39%
c w 30.04 28 187 0 34 9541 22 132809 16562 3.1 24 8 1 5 24% 738 82538 13183 39%
c x 30.12 28 187 0 34 9541 22 132809 16559 3.1 24 8 1 5 24% 739 81244 13183 39%
c t 30.48 28 187 0 34 9541 22 132809 16559 3.1 24 8 1 5 24% 738 81244 13183 39%
c - 30.78 28 186 0 35 9784 21 135886 16844 3.1 24 8 1 5 24% 758 81244 13183 39%
c - 31.59 28 185 0 36 10484 22 141803 19511 3.2 25 8 1 5 25% 774 81244 13183 39%
c - 32.36 28 183 0 37 11083 22 147803 21704 3.2 25 8 1 5 26% 789 81243 13183 39%
c - 33.14 28 180 0 38 11608 22 153885 23319 3.2 25 8 1 5 26% 807 81242 13183 39%
c s 33.56 28 181 0 38 11898 22 157858 26829 3.2 26 8 1 5 26% 824 80229 13183 39%
c e 33.64 28 181 0 38 11898 22 157858 26829 3.2 26 8 1 5 26% 678 90973 11784 35%
c 2 33.64 28 181 0 38 11898 22 157858 26829 3.2 26 8 1 5 26% 675 90973 11784 35%
c
c  seconds   switched      rate          size/glue tier1   binary         remaining
c         MB   reductions    conflicts         size  tier2    irredundant
c           level   restarts        redundant    glue   trail        variables
c
c s 33.66 28 181 0 38 11898 22 157858 26829 3.2 26 8 1 5 26% 678 89480 11784 35%
c e 33.67 28 181 0 38 11898 22 157858 26829 3.2 26 8 1 5 26% 664 89565 11754 35%
c ^ 33.67 28 181 0 38 11898 22 157858 26829 3.2 26 8 1 5 26% 664 89565 11754 35%
c - 33.92 28 180 0 39 12050 22 160049 19158 3.2 26 8 1 5 27% 668 89559 11754 35%
c o 33.94 28 180 0 39 12053 22 160227 19329 3.2 25 8 1 5 27% 669 89559 11754 35%
c d 34.43 28 178 0 39 12394 22 164802 23619 3.1 26 8 1 5 27% 672 89559 11752 35%
c u 34.46 28 178 0 39 12394 22 164802 21633 3.1 26 8 1 5 27% 680 89559 11752 35%
c v 34.52 28 178 0 39 12394 22 164802 18703 3.1 26 8 1 5 27% 689 89559 11752 35%
c w 34.66 28 178 0 39 12394 22 164802 18598 3.1 26 8 1 5 27% 689 89559 11752 35%
c x 34.72 28 178 0 39 12394 22 164802 18582 3.1 26 8 1 5 27% 723 89451 11752 35%
c d 34.73 28 178 0 39 12394 22 164802 18574 3.1 26 8 1 5 27% 717 89451 11749 35%
c t 34.73 28 178 0 39 12394 22 164802 18574 3.1 26 8 1 5 27% 662 89451 11749 35%
c c 34.83 28 178 0 39 12394 22 164802 18566 3.1 26 8 1 5 27% 673 89383 11742 34%
c d 34.83 28 178 0 39 12394 22 164802 18564 3.1 26 8 1 5 27% 659 89383 11742 34%
c u 34.86 28 178 0 39 12394 22 164802 18145 3.1 26 8 1 5 27% 661 89383 11742 34%
c v 34.90 28 178 0 39 12394 22 164802 17562 3.1 26 8 1 5 27% 661 89383 11742 34%
c w 35.12 28 178 0 39 12394 22 164802 17017 3.1 26 8 1 5 27% 661 89383 11742 34%
c d 35.54 28 178 0 39 12394 22 164802 17017 3.1 26 8 1 5 27% 659 89375 11741 34%
c - 35.69 28 177 0 40 12499 21 166293 16004 3.1 25 8 1 5 27% 662 89375 11741 34%
c - 36.17 28 173 0 41 12818 21 172619 18750 3.1 25 8 1 5 26% 682 89375 11741 34%
c
c  seconds   switched      rate          size/glue tier1   binary         remaining
c         MB   reductions    conflicts         size  tier2    irredundant
c           level   restarts        redundant    glue   trail        variables
c
c - 37.02 28 170 0 42 13401 21 179022 21135 3.1 25 8 1 5 27% 689 89374 11741 34%
c - 37.68 28 167 0 43 13822 21 185502 22655 3.1 25 8 1 5 27% 703 89371 11741 34%
c - 38.28 28 163 0 44 14222 20 192059 23708 3.0 25 8 1 5 27% 737 89371 11741 34%
c - 38.86 28 159 0 45 14687 20 198693 24528 3.0 24 8 1 5 27% 777 89371 11741 34%
c d 38.97 28 157 0 45 14755 19 200592 25903 2.9 24 8 1 5 27% 745 89361 11715 34%
c u 39.01 28 157 0 45 14755 19 200592 24108 2.9 24 8 1 5 27% 763 89361 11715 34%
c v 39.08 28 157 0 45 14755 19 200592 20540 2.9 24 8 1 5 27% 769 89361 11715 34%
c w 39.13 28 157 0 45 14755 19 200592 20180 2.9 24 8 1 5 27% 769 89361 11715 34%
c x 39.18 28 157 0 45 14755 19 200592 20142 2.9 24 8 1 5 27% 770 88896 11715 34%
c d 39.19 28 157 0 45 14755 19 200592 20139 2.9 24 8 1 5 27% 764 88896 11712 34%
c t 39.19 28 157 0 45 14755 19 200592 20139 2.9 24 8 1 5 27% 745 88896 11712 34%
c u 39.24 28 157 0 45 14755 19 200592 19754 2.9 24 8 1 5 27% 749 88896 11712 34%
c v 39.28 28 157 0 45 14755 19 200592 19110 2.9 24 8 1 5 27% 749 88896 11712 34%
c w 39.32 28 157 0 45 14755 19 200592 18921 2.9 24 8 1 5 27% 749 88896 11712 34%
c x 39.42 28 157 0 45 14755 19 200592 18910 2.9 24 8 1 5 27% 752 88519 11712 34%
c d 39.43 28 157 0 45 14755 19 200592 18908 2.9 24 8 1 5 27% 750 88519 11711 34%
c t 39.43 28 157 0 45 14755 19 200592 18908 2.9 24 8 1 5 27% 747 88519 11711 34%
c - 39.79 28 154 0 46 14984 19 205401 19482 2.9 24 8 1 5 27% 761 88519 11711 34%
c - 40.10 28 149 0 47 15237 18 212183 21542 2.9 23 8 1 5 26% 795 88517 11711 34%
c - 40.47 28 144 0 48 15540 17 219040 23148 2.8 23 8 1 5 25% 836 88516 11711 34%
c
c  seconds   switched      rate          size/glue tier1   binary         remaining
c         MB   reductions    conflicts         size  tier2    irredundant
c           level   restarts        redundant    glue   trail        variables
c
c o 40.53 28 143 0 48 15603 17 220239 24217 2.8 23 8 1 5 25% 844 88516 11711 34%
c - 40.79 28 139 0 49 15809 17 225969 24322 2.8 22 8 1 5 25% 889 88515 11711 34%
c - 41.02 28 134 0 50 16055 16 232971 25034 2.7 22 8 1 5 24% 937 88515 11711 34%
c s 41.24 28 127 0 50 16301 15 239988 31430 2.7 22 8 1 5 23% 968 88485 11711 34%
c e 41.37 28 127 0 50 16301 15 239988 31430 2.7 22 8 1 5 23% 633 102638 10560 31%
c 2 41.37 28 127 0 50 16301 15 239988 31430 2.7 22 8 1 5 23% 632 102638 10560 31%
c s 41.39 28 127 0 50 16301 15 239988 31430 2.7 22 8 1 5 23% 634 99072 10560 31%
c e 41.43 28 127 0 50 16301 15 239988 31430 2.7 22 8 1 5 23% 625 99330 10538 31%
c ! 41.43 28 127 0 50 16301 15 239988 31430 2.7 22 8 1 5 23% 625 99330 10538 31%
c - 41.44 28 127 0 51 16303 15 240043 15559 2.7 22 8 1 5 23% 625 99330 10538 31%
c c 41.46 28 127 0 51 16304 15 240261 15743 2.7 22 8 1 5 23% 667 99108 10516 31%
c d 41.47 28 127 0 51 16304 15 240261 15705 2.7 22 8 1 5 23% 623 99108 10516 31%
c u 41.50 28 127 0 51 16304 15 240261 14049 2.7 22 8 1 5 23% 632 99108 10516 31%
c v 41.53 28 127 0 51 16304 15 240261 12813 2.7 22 8 1 5 23% 638 99108 10516 31%
c w 41.54 28 127 0 51 16304 15 240261 12745 2.7 22 8 1 5 23% 638 99108 10516 31%
c d 41.77 28 127 0 51 16304 15 240261 12745 2.7 22 8 1 5 23% 630 99102 10512 31%
c t 41.78 28 127 0 51 16304 15 240261 12745 2.7 22 8 1 5 23% 620 99102 10512 31%
c f 41.83 28 127 0 51 16304 15 240261 12745 2.7 22 8 1 5 23% 635 98928 10518 31%
c u 41.86 28 127 0 51 16304 15 240261 12562 2.7 22 8 1 5 23% 638 98928 10518 31%
c v 41.88 28 127 0 51 16304 15 240261 12305 2.7 22 8 1 5 23% 639 98928 10518 31%
c
c  seconds   switched      rate          size/glue tier1   binary         remaining
c         MB   reductions    conflicts         size  tier2    irredundant
c           level   restarts        redundant    glue   trail        variables
c
c w 41.89 28 127 0 51 16304 15 240261 12273 2.7 22 8 1 5 23% 639 98928 10518 31%
c x 41.96 28 127 0 51 16304 15 240261 12243 2.7 22 8 1 5 23% 683 98566 10518 31%
c d 41.96 28 127 0 51 16304 15 240261 12242 2.7 22 8 1 5 23% 679 98566 10516 31%
c t 41.97 28 127 0 51 16304 15 240261 12242 2.7 22 8 1 5 23% 635 98566 10516 31%
c f 42.03 28 127 0 51 16304 15 240261 12242 2.7 22 8 1 5 23% 655 98528 10517 31%
c - 42.21 28 122 0 52 16596 14 247188 15554 2.7 21 8 1 5 22% 682 98506 10517 31%
c - 42.37 28 116 0 53 16778 14 254401 18919 2.7 21 8 1 5 21% 710 98504 10517 31%
c i 42.41 28 114 0 53 16803 13 256625 20733 2.7 21 8 1 5 20% 719 98504 10516 31%
c i 42.41 28 114 0 53 16803 13 256870 20865 2.7 21 8 1 5 20% 726 98504 10515 31%
c i 42.41 28 114 0 53 16803 13 256883 20872 2.7 21 8 1 5 20% 727 98504 10514 31%
c i 42.41 28 114 0 53 16803 13 256944 20903 2.7 21 8 1 5 20% 732 98503 10512 31%
c i 42.41 28 114 0 53 16803 13 256948 20902 2.7 21 8 1 5 20% 734 98503 10510 31%
c i 42.41 28 114 0 53 16803 13 256954 20905 2.7 21 8 1 5 20% 735 98503 10507 31%
c i 42.41 28 114 0 53 16803 13 256955 20905 2.7 21 8 1 5 20% 735 98503 10500 31%
c i 42.41 28 114 0 53 16803 13 256956 20905 2.7 21 8 1 5 20% 735 98503 10493 31%
c i 42.41 28 114 0 53 16803 13 256957 20904 2.7 21 8 1 5 20% 735 98503 10491 31%
c } 42.41 28 114 0 53 16803 13 256959 20904 2.7 21 8 1 5 20% 735 98503 10479 31%
c 0 42.41 28 114 0 53 16803 13 256959 20904 2.7 21 8 1 5 20% 735 98503 10479 31%
c
c ---- [ result ] ------------------------------------------------------------
c
s UNSATISFIABLE
c
c ---- [ profiling ] ---------------------------------------------------------
c
c          30.75   72.52 %  search
c          30.75   72.52 %  focused
c          11.03   26.01 %  simplify
c          10.44   24.62 %  probe
c           4.34   10.24 %  vivify
c           3.62    8.54 %  sweep
c           0.88    2.08 %  eliminate
c           0.86    2.04 %  factor
c           0.81    1.92 %  congruence
c           0.63    1.49 %  substitute
c           0.55    1.30 %  preprocess
c           0.25    0.59 %  fastel
c           0.25    0.59 %  reduce
c           0.13    0.32 %  subsume
c           0.10    0.23 %  transitive
c           0.07    0.16 %  backbone
c           0.05    0.11 %  lucky
c           0.02    0.06 %  parse
c =============================================
c          42.41  100.00 %  total
c
c ---- [ statistics ] --------------------------------------------------------
c
c chronological:                         7582                3 %  conflicts
c conflicts:                           256959             6059.25 per second
c congruent:                             7585               22 %  variables
c decisions:                          4384720               17.06 per conflict
c eliminated:                           13621               40 %  variables
c factored:                              3336               10 %  variables
c fast_eliminated:                       9946               73 %  eliminated
c fast_strengthened:                       24                0 %  per strengthened
c fast_subsumed:                          129                0 %  per subsumed
c iterations:                              10                0 %  variables
c propagations:                     168613503          3976009    per second
c reductions:                              53             4848    interval
c reordered:                                7            36708    interval
c restarts:                             16803               15    interval
c strengthened:                          8940                0 %  checks
c substituted:                          13234               39 %  variables
c subsumed:                             35551                1 %  checks
c switched:                                 0                0    interval
c vivified:                             80870               12 %  checks
c
c ---- [ glue usage ] --------------------------------------------------------
c
c focused glue 1 used 478432 clauses 56.86% accumulated 56.86% tier1
c focused glue 2 used 161696 clauses 19.22% accumulated 76.07%
c focused glue 3 used  60393 clauses  7.18% accumulated 83.25%
c focused glue 4 used  36114 clauses  4.29% accumulated 87.54%
c focused glue 5 used  24168 clauses  2.87% accumulated 90.41% tier2
c
c ---- [ resources ] ---------------------------------------------------------
c
c maximum-resident-set-size:         32116736 bytes         31 MB
c process-time:                            42s              42.41 seconds
c
c ---- [ shutting down ] -----------------------------------------------------
c
c exit 20
